NAME : A-n39-k6-20
TYPE : VRP-D
DIMENSION : 20
CAPACITY : 100
NODE_COORD_SECTION 
 1 39 19
 2 79 19
 3 41 79
 4 25 31
 5 63 93
 6 33 5
 7 69 17
 8 57 73
 9 53 75
 10 1 1
 11 79 73
 12 59 5
 13 1 37
 14 41 31
 15 23 73
 16 37 27
 17 85 93
 18 93 13
 19 85 45
 20 49 91
DEMAND_SECTION 
1 0 
2 18 
3 16 
4 22 
5 24 
6 3 
7 19 
8 6 
9 6 
10 6 
11 12 
12 18 
13 16 
14 72 
15 7 
16 16 
17 23 
18 4 
19 22 
20 23 
DEPOT_SECTION 
 1  
 -1  
EOF 
